20
587 233 220
114 67 25
92 79 25
89 87 36
95 71 36
90 83 43
93 39 28
69 54 31
107 61 37
98 52 40
83 69 60
98 63 58
45 40 26
63 44 36
96 56 43
88 42 35
40 37 36
97 74 67
76 45 42
64 43 42
91 53 37
thpack7_44